c uprop, v00.0, 
c reading from data/prog830.c.cnf
c done reading: 0.002546
p cnf 102 402
-49 -51 0
-51 -53 0
49 51 53 0
49 53 -57 0
-49 -53 -57 0
-49 53 57 0
49 -53 57 0
51 -61 0
-61 -64 0
-51 61 64 0
-51 64 -67 0
51 -64 -67 0
51 64 67 0
-51 -64 67 0
61 -71 0
-61 71 0
-61 -73 0
61 73 0
71 -77 0
-71 77 0
-50 -71 0
50 71 0
-55 77 0
55 -77 0
-65 -77 0
65 77 0
-47 55 0
47 -55 0
-45 -55 0
45 55 0
-43 47 0
43 -47 0
-41 -47 0
41 47 0
-39 53 0
-39 49 0
39 -49 -53 0
-37 -49 -53 0
-37 49 53 0
37 49 -53 0
37 -49 53 0
35 -53 -64 0
35 -39 -64 0
35 -39 -53 0
-35 53 64 0
-35 39 64 0
-35 39 53 0
-34 -35 64 0
-34 -35 53 0
-34 -35 39 0
34 35 -64 0
34 35 -53 0
34 35 -39 0
34 -39 -53 -64 0
-34 39 53 64 0
32 -35 -64 0
-32 64 0
-32 35 0
-32 35 64 0
-31 -32 0
-31 -32 64 0
-31 -32 35 0
31 32 -64 0
31 32 -35 0
-31 35 64 0
30 -32 0
-30 32 0
34 -56 0
49 -56 0
-34 -49 56 0
-34 -49 -60 0
34 49 -60 0
-34 49 60 0
34 -49 60 0
-31 -53 66 0
-31 -56 66 0
-53 -56 66 0
31 53 -66 0
31 56 -66 0
53 56 -66 0
31 -66 -70 0
53 -66 -70 0
56 -66 -70 0
-31 66 70 0
-53 66 70 0
-56 66 70 0
-31 -53 -56 70 0
31 53 56 -70 0
-30 -64 0
-30 -66 0
-64 -66 0
-30 75 0
-64 75 0
-66 75 0
-30 -64 -66 75 0
30 64 66 -75 0
-49 -79 0
-37 -79 0
37 49 79 0
37 49 -80 0
-37 -49 -80 0
37 -49 80 0
-37 49 80 0
79 -81 0
-60 -81 0
60 -79 81 0
60 -79 -82 0
-60 79 -82 0
60 79 82 0
-60 -79 82 0
81 -83 0
-70 -83 0
70 -81 83 0
70 -81 -84 0
-70 81 -84 0
70 81 84 0
-70 -81 84 0
83 -85 0
-75 -85 0
75 -83 85 0
75 -83 -86 0
-75 83 -86 0
75 83 86 0
-75 -83 86 0
85 -87 0
-85 87 0
-85 -88 0
85 88 0
87 -89 0
-87 89 0
-87 -90 0
87 90 0
89 -91 0
-89 91 0
-52 -89 0
52 89 0
-58 91 0
58 -91 0
-62 -91 0
62 91 0
58 -68 0
-58 68 0
-58 -72 0
58 72 0
68 -74 0
-68 74 0
-68 -78 0
68 78 0
-44 -93 0
44 93 0
-40 -95 0
40 95 0
-36 -97 0
36 97 0
-33 -99 0
33 99 0
-101 -102 0
101 102 0
29 -93 0
-29 93 0
-28 -29 93 0
-28 -29 0
28 29 -93 0
28 29 0
27 -93 -95 0
27 -29 -95 0
27 -29 -93 0
-27 93 95 0
-27 29 95 0
-27 29 93 0
-26 -27 95 0
-26 -27 93 0
-26 -27 29 0
26 27 -95 0
26 27 -93 0
26 27 -29 0
26 -29 -93 -95 0
-26 29 93 95 0
25 -95 -97 0
25 -27 -97 0
25 -27 -95 0
-25 95 97 0
-25 27 97 0
-25 27 95 0
-24 -25 97 0
-24 -25 95 0
-24 -25 27 0
24 25 -97 0
24 25 -95 0
24 25 -27 0
24 -27 -95 -97 0
-24 27 95 97 0
23 -97 -99 0
23 -25 -99 0
23 -25 -97 0
-23 97 99 0
-23 25 99 0
-23 25 97 0
-22 -23 99 0
-22 -23 97 0
-22 -23 25 0
22 23 -99 0
22 23 -97 0
22 23 -25 0
22 -25 -97 -99 0
-22 25 97 99 0
21 -99 -101 0
21 -23 -101 0
21 -23 -99 0
-21 99 101 0
-21 23 101 0
-21 23 99 0
-20 -21 101 0
-20 -21 99 0
-20 -21 23 0
20 21 -101 0
20 21 -99 0
20 21 -23 0
20 -23 -99 -101 0
-20 23 99 101 0
-19 101 0
-19 21 0
19 -21 -101 0
-21 -48 -101 0
21 -48 101 0
21 48 -101 0
-21 48 101 0
28 -63 0
-28 63 0
18 -26 0
-18 26 0
17 -24 0
-17 24 0
-16 -17 24 0
-16 -17 0
16 17 -24 0
16 17 0
15 -22 -93 0
15 -17 -22 0
15 -17 -93 0
-15 22 93 0
-15 17 22 0
-15 17 93 0
-14 -15 22 0
-14 -15 93 0
-14 -15 17 0
14 15 -22 0
14 15 -93 0
14 15 -17 0
14 -17 -22 -93 0
-14 17 22 93 0
13 -20 -95 0
13 -15 -20 0
13 -15 -95 0
-13 20 95 0
-13 15 20 0
-13 15 95 0
-12 -13 20 0
-12 -13 95 0
-12 -13 15 0
12 13 -20 0
12 13 -95 0
12 13 -15 0
12 -15 -20 -95 0
-12 15 20 95 0
-48 92 -97 0
-13 -48 92 0
-13 92 -97 0
48 -92 97 0
13 48 -92 0
13 -92 97 0
48 -92 -94 0
-92 -94 97 0
13 -92 -94 0
-48 92 94 0
92 94 -97 0
-13 92 94 0
-13 -48 94 -97 0
13 48 -94 97 0
-19 96 -99 0
-19 -92 96 0
-92 96 -99 0
19 -96 99 0
19 92 -96 0
92 -96 99 0
19 -96 -98 0
-96 -98 99 0
92 -96 -98 0
-19 96 98 0
96 98 -99 0
-92 96 98 0
-19 -92 98 -99 0
19 92 -98 99 0
-100 101 0
96 -100 0
-96 100 -101 0
-11 -96 -101 0
-11 96 101 0
11 96 -101 0
11 -96 101 0
-10 16 0
10 -16 0
9 -14 0
-9 14 0
8 -12 0
-8 12 0
-7 -8 12 0
-7 -8 0
7 8 -12 0
7 8 0
6 -93 -94 0
6 -8 -94 0
6 -8 -93 0
-6 93 94 0
-6 8 94 0
-6 8 93 0
6 -94 0
6 -93 0
6 -8 0
-8 -93 -94 0
5 -95 -98 0
5 -6 -98 0
5 -6 -95 0
-5 95 98 0
-5 6 98 0
-5 6 95 0
5 -98 0
5 -95 0
5 -6 0
-6 -95 -98 0
4 -11 -97 0
4 -5 -11 0
4 -5 -97 0
-4 11 97 0
-4 5 11 0
-4 5 97 0
4 -11 0
4 -97 0
4 -5 0
-5 -11 -97 0
3 -99 -100 0
3 -4 -100 0
3 -4 -99 0
-3 99 100 0
-3 4 100 0
-3 4 99 0
3 -100 0
3 -99 0
3 -4 0
-4 -99 -100 0
-3 -101 0
3 -101 0
-3 101 0
-63 -76 0
63 76 0
-18 -54 0
18 54 0
-10 -46 0
10 46 0
-9 -42 0
9 42 0
-7 -38 0
7 38 0
-2 49 0
-2 63 0
2 -49 -63 0
-49 63 0
49 -63 0
1 -18 -37 0
1 -2 -37 0
1 -2 -18 0
-1 18 37 0
-1 2 37 0
-1 2 18 0
-1 37 0
-1 18 0
-1 2 0
2 18 37 0
-10 59 -60 0
-1 59 -60 0
-1 -10 59 0
10 -59 60 0
1 -59 60 0
1 10 -59 0
59 -60 0
-10 59 0
-1 59 0
-1 -10 -60 0
-9 69 -70 0
-59 69 -70 0
-9 -59 69 0
9 -69 70 0
59 -69 70 0
9 59 -69 0
69 -70 0
-9 69 0
-59 69 0
-9 -59 -70 0
-7 -75 0
-69 -75 0
-7 -69 0
7 69 75 0
